p wcnf 188 282 283 
1 -161 -26 0 
1 -12 169 0 
1 -26 -36 0 
1 -146 -131 0 
1 179 -141 0 
1 -24 -153 0 
1 50 -71 0 
1 -30 17 0 
1 -112 124 0 
1 -6 152 0 
1 172 -105 0 
1 -160 54 0 
1 139 138 0 
1 -11 -88 0 
1 2 -74 0 
1 9 -44 0 
1 77 125 0 
1 168 184 0 
1 148 -81 0 
1 185 126 0 
1 9 -104 0 
1 -117 -140 0 
1 184 140 0 
1 -149 120 0 
1 -39 -162 0 
1 172 99 0 
1 -116 77 0 
1 109 94 0 
1 -86 -15 0 
1 -125 -103 0 
1 55 101 0 
1 16 -63 0 
1 -145 187 0 
1 175 -54 0 
1 147 -110 0 
1 122 113 0 
1 161 48 0 
1 90 -60 0 
1 180 -5 0 
1 172 112 0 
1 153 -136 0 
1 84 -25 0 
1 43 87 0 
1 -48 -51 0 
1 94 92 0 
1 -173 68 0 
1 -99 164 0 
1 60 -53 0 
1 30 -172 0 
1 -89 75 0 
1 -51 103 0 
1 -161 -179 0 
1 67 -74 0 
1 138 24 0 
1 -91 26 0 
1 64 -139 0 
1 -123 85 0 
1 -106 70 0 
1 -81 -68 0 
1 -64 -90 0 
1 23 -3 0 
1 -68 145 0 
1 129 117 0 
1 66 38 0 
1 -80 -42 0 
1 99 -120 0 
1 -93 60 0 
1 -161 153 0 
1 32 -36 0 
1 45 -89 0 
1 -44 150 0 
1 -95 156 0 
1 160 -99 0 
1 -56 -125 0 
1 180 35 0 
1 27 132 0 
1 -79 121 0 
1 -75 112 0 
1 148 -13 0 
1 -168 80 0 
1 -56 -149 0 
1 -99 79 0 
1 178 64 0 
1 81 -11 0 
1 -157 -88 0 
1 148 39 0 
1 -45 49 0 
1 145 -67 0 
1 6 24 0 
1 -42 -120 0 
1 -45 -98 0 
1 70 -132 0 
1 -147 -153 0 
1 -54 75 0 
1 93 42 0 
1 -112 -57 0 
1 97 85 0 
1 -133 107 0 
1 -136 -164 0 
1 -41 -51 0 
1 -74 160 0 
1 -148 -182 0 
1 155 -89 0 
1 -138 -160 0 
1 -43 40 0 
1 -116 -128 0 
1 -95 84 0 
1 -169 -122 0 
1 -104 137 0 
1 35 -58 0 
1 -12 122 0 
1 19 -132 0 
1 113 -26 0 
1 -137 152 0 
1 -140 -178 0 
1 -83 47 0 
1 185 -82 0 
1 -79 -78 0 
1 -20 62 0 
1 152 -34 0 
1 -160 140 0 
1 -6 -152 0 
1 110 -24 0 
1 -40 52 0 
1 -91 188 0 
1 28 157 0 
1 -63 -82 0 
1 70 -3 0 
1 175 89 0 
1 130 -171 0 
1 -7 40 0 
1 58 49 0 
1 -41 -25 0 
1 -1 117 0 
1 -182 87 0 
1 -164 107 0 
1 -72 56 0 
1 -148 25 0 
1 -51 -64 0 
1 111 -156 0 
1 17 115 0 
1 41 101 0 
1 75 -71 0 
1 -170 -171 0 
1 -101 61 0 
1 98 127 0 
1 92 -100 0 
1 -59 61 0 
1 115 -151 0 
1 -65 155 0 
1 16 -171 0 
1 99 -186 0 
1 -162 53 0 
1 -143 127 0 
1 -14 -185 0 
1 89 81 0 
1 50 180 0 
1 -131 187 0 
1 49 -41 0 
1 26 182 0 
1 -93 62 0 
1 59 -82 0 
1 -49 184 0 
1 -127 -102 0 
1 -141 -142 0 
1 -183 154 0 
1 14 49 0 
1 115 -148 0 
1 -92 136 0 
1 -17 -20 0 
1 38 156 0 
1 46 -188 0 
1 53 -3 0 
1 -180 178 0 
1 60 -61 0 
1 6 134 0 
1 -31 166 0 
1 23 -51 0 
1 61 149 0 
1 -6 -174 0 
1 -115 -23 0 
1 -113 31 0 
1 -49 -125 0 
1 -186 -152 0 
1 40 187 0 
1 152 158 0 
1 153 164 0 
1 -135 79 0 
1 167 -65 0 
1 174 167 0 
1 -97 -2 0 
1 67 31 0 
1 143 -87 0 
1 -118 107 0 
1 46 -114 0 
1 10 131 0 
1 155 28 0 
1 123 118 0 
1 4 118 0 
1 -99 -157 0 
1 156 188 0 
1 -7 182 0 
1 -128 -170 0 
1 -144 -178 0 
1 -157 75 0 
1 -103 -160 0 
1 -140 -34 0 
1 -182 162 0 
1 161 143 0 
1 -60 -101 0 
1 103 165 0 
1 41 29 0 
1 91 113 0 
1 -93 169 0 
1 124 -90 0 
1 -145 -176 0 
1 -141 161 0 
1 -133 -91 0 
1 144 68 0 
1 131 -163 0 
1 -4 -106 0 
1 132 159 0 
1 155 52 0 
1 -32 -59 0 
1 75 50 0 
1 56 180 0 
1 122 146 0 
1 31 25 0 
1 83 -160 0 
1 -40 150 0 
1 121 39 0 
1 173 60 0 
1 61 134 0 
1 -65 112 0 
1 28 153 0 
1 156 -57 0 
1 110 -96 0 
1 5 132 0 
1 108 85 0 
1 134 108 0 
1 49 52 0 
1 131 -17 0 
1 111 77 0 
1 186 -45 0 
1 93 -82 0 
1 -142 85 0 
1 125 -45 0 
1 -93 -150 0 
1 63 -170 0 
1 -57 12 0 
1 -15 -145 0 
1 169 -93 0 
1 49 -85 0 
1 -2 -28 0 
1 -30 154 0 
1 100 -151 0 
1 113 -182 0 
1 -108 -27 0 
1 159 -175 0 
1 20 74 0 
1 77 -166 0 
1 -85 -24 0 
1 -102 95 0 
1 84 140 0 
1 -173 119 0 
1 54 -21 0 
1 -106 155 0 
1 141 42 0 
1 -59 -111 0 
1 -118 -174 0 
1 -32 -90 0 
1 161 -110 0 
1 -173 29 0 
1 121 50 0 
1 77 -101 0 
1 -152 48 0 
1 87 75 0 
1 -183 10 0 
1 11 159 0 
1 86 170 0 
1 44 -89 0 
1 -165 187 0 
